(set-info :source |
 Generated by Alive 0.1
 More info in N. P. Lopes, D. Menendez, S. Nagarakatte, J. Regehr.
 Provably Correct Peephole Optimizations with Alive. In PLDI'15.
|)

(set-info :status unknown)
(declare-fun u_%op1 () (_ BitVec 8))
(declare-fun C () (_ BitVec 51))
(assert
 (let (($x140258 (and (distinct u_%op1 (_ bv1 8)) true)))
 (let (($x152303 (and (and (distinct C (_ bv0 51)) true) (= (bvand C (bvsub C (_ bv1 51))) (_ bv0 51)))))
 (and $x152303 $x140258 false))))
(check-sat)
